c b=3,c=1521
p cnf 17 49
3 -6 0
1 2 3 -10 0
1 2 3 -11 0
1 2 3 -12 0
2 3 -13 0
1 3 -14 0
1 3 -16 0
-3 6 0
1 2 -3 10 0
-3 11 0
-3 12 0
1 -3 13 0
2 -3 14 0
2 -3 16 0
2 -5 0
1 2 -9 0
1 2 -15 0
2 -17 0
-2 3 10 0
1 -2 3 15 0
3 -17 0
-2 -3 -10 0
1 -3 -15 0
-2 -3 17 0
-2 5 0
1 -2 9 0
-2 11 0
-2 12 0
1 -2 13 0
-2 -14 0
1 -2 -16 0
1 -4 0
1 -8 0
-1 3 10 0
-1 3 -15 0
2 3 -16 0
-1 -3 -10 0
-1 -3 15 0
-1 2 9 0
-1 2 14 0
-1 -2 3 16 0
-2 -3 -16 0
-1 -2 -9 0
-1 4 0
-1 8 0
-1 11 0
-1 12 0
-1 -13 0
-7 0
